\ Model Staff Scheduling Problem with Breaks
\ LP format - for model browsing. Use MPS format to capture full model detail.
Minimize
  x[0,0] + x[0,1] + x[0,2] + x[0,3] + x[0,4] + x[0,5] + x[0,6] + x[0,7]
   + x[0,8] + x[1,0] + x[1,1] + x[1,2] + x[1,3] + x[1,4] + x[1,5] + x[1,6]
   + x[1,7] + x[1,8] + x[2,0] + x[2,1] + x[2,2] + x[2,3] + x[2,4] + x[2,5]
   + x[2,6] + x[2,7] + x[2,8] + x[3,0] + x[3,1] + x[3,2] + x[3,3] + x[3,4]
   + x[3,5] + x[3,6] + x[3,7] + x[3,8] + x[4,0] + x[4,1] + x[4,2] + x[4,3]
   + x[4,4] + x[4,5] + x[4,6] + x[4,7] + x[4,8] + x[5,0] + x[5,1] + x[5,2]
   + x[5,3] + x[5,4] + x[5,5] + x[5,6] + x[5,7] + x[5,8] + x[6,0] + x[6,1]
   + x[6,2] + x[6,3] + x[6,4] + x[6,5] + x[6,6] + x[6,7] + x[6,8] + x[7,0]
   + x[7,1] + x[7,2] + x[7,3] + x[7,4] + x[7,5] + x[7,6] + x[7,7] + x[7,8]
   + x[8,0] + x[8,1] + x[8,2] + x[8,3] + x[8,4] + x[8,5] + x[8,6] + x[8,7]
   + x[8,8] + x[9,0] + x[9,1] + x[9,2] + x[9,3] + x[9,4] + x[9,5] + x[9,6]
   + x[9,7] + x[9,8] + x[10,0] + x[10,1] + x[10,2] + x[10,3] + x[10,4]
   + x[10,5] + x[10,6] + x[10,7] + x[10,8] + x[11,0] + x[11,1] + x[11,2]
   + x[11,3] + x[11,4] + x[11,5] + x[11,6] + x[11,7] + x[11,8]
Subject To
 R0: x[0,0] <= 0.9723554387633009
 R1: x[0,1] <= -0.5225575273537213
 R2: x[0,2] <= 2.636004850166191
 R3: x[0,3] <= 7.028838447890163
 R4: x[0,4] <= 2.310247128626706
 R5: x[0,5] <= 0.3594485283745306
 R6: x[0,6] <= 7.048923454506498
 R7: x[0,7] <= 3.366413358211561
 R8: x[0,8] <= 3.964278649483721
 R9: x[1,0] <= -0.3060621597921329
 R10: x[1,1] <= -0.6748223761281078
 R11: x[1,2] <= 5.812903921260619
 R12: x[1,3] <= -0.137806242065065
 R13: x[1,4] <= -0.2604366645051106
 R14: x[1,5] <= 7.138425316841762
 R15: x[1,6] <= 0.0523085711791735
 R16: x[1,7] <= 6.317216775865258
 R17: x[1,8] <= 7.102507194018202
 R18: x[2,0] <= 1.135020194564673
 R19: x[2,1] <= 4.438188038248866
 R20: x[2,2] <= 7.045825195939331
 R21: x[2,3] <= 4.269515003305066
 R22: x[2,4] <= 0.4546997910383592
 R23: x[2,5] <= 5.714726655719234
 R24: x[2,6] <= 0.7853075459933996
 R25: x[2,7] <= 2.407774908470326
 R26: x[2,8] <= 1.009930182943953
 R27: x[3,0] <= 2.949622054728322
 R28: x[3,1] <= 2.409798950270945
 R29: x[3,2] <= -0.8478657035496562
 R30: x[3,3] <= 0.6413818950557142
 R31: x[3,4] <= 1.1377419027458
 R32: x[3,5] <= 6.495544067939457
 R33: x[3,6] <= 1.71847940487386
 R34: x[3,7] <= 3.237087470604299
 R35: x[3,8] <= 2.353605326609441
 R36: x[4,0] <= 5.386809792571379
 R37: x[4,1] <= 4.751392879054385
 R38: x[4,2] <= 6.428817020440089
 R39: x[4,3] <= 2.031268448666066
 R40: x[4,4] <= 6.797925048425381
 R41: x[4,5] <= 5.15255063253132
 R42: x[4,6] <= 3.113474652497231
 R43: x[4,7] <= 1.24620084377502
 R44: x[4,8] <= 4.078975898515456
 R45: x[5,0] <= 2.580080743355161
 R46: x[5,1] <= 4.351024963998331
 R47: x[5,2] <= 6.133074212317171
 R48: x[5,3] <= 4.724855357407248
 R49: x[5,4] <= 1.337539710943782
 R50: x[5,5] <= 5.45032269823824
 R51: x[5,6] <= 2.479865909391116
 R52: x[5,7] <= 5.909762482285858
 R53: x[5,8] <= 2.909108660604472
 R54: x[6,0] <= 5.071423476640344
 R55: x[6,1] <= 6.321344585560589
 R56: x[6,2] <= 6.599602899452939
 R57: x[6,3] <= -0.3285923967822615
 R58: x[6,4] <= 3.275036676979286
 R59: x[6,5] <= 4.750295810074704
 R60: x[6,6] <= 3.905116507355366
 R61: x[6,7] <= 3.734615586032545
 R62: x[6,8] <= 3.521708264429173
 R63: x[7,0] <= -0.5166138316672562
 R64: x[7,1] <= 3.477073524430545
 R65: x[7,2] <= 6.409163852948677
 R66: x[7,3] <= -0.8284485651776083
 R67: x[7,4] <= 2.354375962767094
 R68: x[7,5] <= 5.815362463115417
 R69: x[7,6] <= 0.312420469982895
 R70: x[7,7] <= 1.320727687504643
 R71: x[7,8] <= 2.691546671491653
 R72: x[8,0] <= 2.458334751593949
 R73: x[8,1] <= 5.931066191560199
 R74: x[8,2] <= -0.0145708681283414
 R75: x[8,3] <= 0.9605322748757044
 R76: x[8,4] <= 1.760323240362045
 R77: x[8,5] <= 0.6264027076925729
 R78: x[8,6] <= 2.304896130407841
 R79: x[8,7] <= 2.16099307286807
 R80: x[8,8] <= 1.268950590893116
 R81: x[9,0] <= 2.526219798761284
 R82: x[9,1] <= 4.454082557513129
 R83: x[9,2] <= 4.087992216085957
 R84: x[9,3] <= 6.469843498456609
 R85: x[9,4] <= 4.739784931306972
 R86: x[9,5] <= 3.802895665565371
 R87: x[9,6] <= 4.720573319755287
 R88: x[9,7] <= 3.54515588588554
 R89: x[9,8] <= 1.641665252514853
 R90: x[10,0] <= 3.202524423121741
 R91: x[10,1] <= 3.686510141085192
 R92: x[10,2] <= 4.658252090415336
 R93: x[10,3] <= 6.082596939869064
 R94: x[10,4] <= 1.767351922459091
 R95: x[10,5] <= 3.855556480410415
 R96: x[10,6] <= 6.979908461831933
 R97: x[10,7] <= 5.577373282357039
 R98: x[10,8] <= -0.4568568038062801
 R99: x[11,0] <= 0.1416735186888893
 R100: x[11,1] <= 0.2268804510359772
 R101: x[11,2] <= 3.941604035517542
 R102: x[11,3] <= 0.5933903258689945
 R103: x[11,4] <= 5.907286840574685
 R104: x[11,5] <= 5.397106950794646
 R105: x[11,6] <= 7.106211124190241
 R106: x[11,7] <= 1.119910973776419
 R107: x[11,8] <= 6.578725575942775
 R108: x[0,0] + x[0,1] + x[0,2] + x[0,3] + x[0,4] + x[0,5] + x[0,6]
   + x[0,7] + x[0,8] + x[1,0] + x[1,1] + x[1,2] + x[1,3] + x[1,4] + x[1,5]
   + x[1,6] + x[1,7] + x[1,8] + x[2,0] + x[2,1] + x[2,2] + x[2,3] + x[2,4]
   + x[2,5] + x[2,6] + x[2,7] + x[2,8] + x[3,0] + x[3,1] + x[3,2] + x[3,3]
   + x[3,4] + x[3,5] + x[3,6] + x[3,7] + x[3,8] + x[4,0] + x[4,1] + x[4,2]
   + x[4,3] + x[4,4] + x[4,5] + x[4,6] + x[4,7] + x[4,8] + x[5,0] + x[5,1]
   + x[5,2] + x[5,3] + x[5,4] + x[5,5] + x[5,6] + x[5,7] + x[5,8] + x[6,0]
   + x[6,1] + x[6,2] + x[6,3] + x[6,4] + x[6,5] + x[6,6] + x[6,7] + x[6,8]
   + x[7,0] + x[7,1] + x[7,2] + x[7,3] + x[7,4] + x[7,5] + x[7,6] + x[7,7]
   + x[7,8] + x[8,0] + x[8,1] + x[8,2] + x[8,3] + x[8,4] + x[8,5] + x[8,6]
   + x[8,7] + x[8,8] + x[9,0] + x[9,1] + x[9,2] + x[9,3] + x[9,4] + x[9,5]
   + x[9,6] + x[9,7] + x[9,8] + x[10,0] + x[10,1] + x[10,2] + x[10,3]
   + x[10,4] + x[10,5] + x[10,6] + x[10,7] + x[10,8] + x[11,0] + x[11,1]
   + x[11,2] + x[11,3] + x[11,4] + x[11,5] + x[11,6] + x[11,7] + x[11,8]
   >= 111.8575746198829
Bounds
End
